p edge 1520 1490
e 1 2
e 1 3
e 1 4
e 1 5
e 1 6
e 1 7
e 1 8
e 1 9
e 1 10
e 1 11
e 1 12
e 1 13
e 1 14
e 1 15
e 1 16
e 1 17
e 1 18
e 1 19
e 1 20
e 1 21
e 1 22
e 1 23
e 1 24
e 1 25
e 1 26
e 1 27
e 1 28
e 1 29
e 1 30
e 1 31
e 1 32
e 1 33
e 1 34
e 1 35
e 1 36
e 1 37
e 1 38
e 1 39
e 1 40
e 1 41
e 1 42
e 1 43
e 44 45
e 44 46
e 44 47
e 44 48
e 44 49
e 44 50
e 44 51
e 44 52
e 44 53
e 44 54
e 44 55
e 44 56
e 44 57
e 44 58
e 44 59
e 44 60
e 44 61
e 44 62
e 44 63
e 44 64
e 44 65
e 44 66
e 44 67
e 44 68
e 44 69
e 44 70
e 44 71
e 44 72
e 44 73
e 44 74
e 44 75
e 44 76
e 44 77
e 44 78
e 44 79
e 44 80
e 44 81
e 44 82
e 44 83
e 44 84
e 44 85
e 44 86
e 44 87
e 44 88
e 44 89
e 44 90
e 44 91
e 44 92
e 44 93
e 44 94
e 44 95
e 44 96
e 44 97
e 44 98
e 44 99
e 44 100
e 44 101
e 44 102
e 44 103
e 44 104
e 44 105
e 44 106
e 44 107
e 44 108
e 44 109
e 44 110
e 44 111
e 44 112
e 44 113
e 44 114
e 44 115
e 44 116
e 44 117
e 44 118
e 119 120
e 119 121
e 119 122
e 119 123
e 119 124
e 119 125
e 119 126
e 119 127
e 119 128
e 119 129
e 119 130
e 119 131
e 119 132
e 119 133
e 119 134
e 119 135
e 119 136
e 119 137
e 119 138
e 119 139
e 119 140
e 141 142
e 141 143
e 141 144
e 141 145
e 141 146
e 141 147
e 141 148
e 141 149
e 141 150
e 141 151
e 141 152
e 141 153
e 141 154
e 141 155
e 141 156
e 141 157
e 141 158
e 141 159
e 141 160
e 141 161
e 141 162
e 141 163
e 141 164
e 141 165
e 141 166
e 141 167
e 141 168
e 141 169
e 141 170
e 141 171
e 141 172
e 141 173
e 141 174
e 141 175
e 141 176
e 141 177
e 141 178
e 141 179
e 141 180
e 141 181
e 141 182
e 141 183
e 141 184
e 141 185
e 141 186
e 141 187
e 141 188
e 141 189
e 141 190
e 141 191
e 141 192
e 141 193
e 194 195
e 194 196
e 194 197
e 194 198
e 194 199
e 194 200
e 194 201
e 194 202
e 194 203
e 194 204
e 194 205
e 194 206
e 194 207
e 194 208
e 194 209
e 194 210
e 194 211
e 194 212
e 194 213
e 194 214
e 194 215
e 194 216
e 194 217
e 194 218
e 194 219
e 194 220
e 194 221
e 194 222
e 194 223
e 194 224
e 194 225
e 194 226
e 194 227
e 194 228
e 194 229
e 194 230
e 194 231
e 194 232
e 194 233
e 194 234
e 194 235
e 194 236
e 194 237
e 194 238
e 194 239
e 194 240
e 194 241
e 194 242
e 194 243
e 194 244
e 194 245
e 194 246
e 194 247
e 194 248
e 194 249
e 194 250
e 194 251
e 194 252
e 194 253
e 194 254
e 194 255
e 194 256
e 194 257
e 194 258
e 194 259
e 194 260
e 194 261
e 194 262
e 194 263
e 194 264
e 194 265
e 194 266
e 194 267
e 194 268
e 194 269
e 194 270
e 194 271
e 194 272
e 194 273
e 194 274
e 194 275
e 194 276
e 194 277
e 194 278
e 194 279
e 194 280
e 194 281
e 194 282
e 194 283
e 194 284
e 285 286
e 285 287
e 285 288
e 285 289
e 285 290
e 285 291
e 285 292
e 285 293
e 285 294
e 285 295
e 285 296
e 297 298
e 297 299
e 297 300
e 297 301
e 297 302
e 297 303
e 297 304
e 297 305
e 297 306
e 297 307
e 297 308
e 297 309
e 297 310
e 297 311
e 297 312
e 297 313
e 297 314
e 297 315
e 297 316
e 297 317
e 297 318
e 297 319
e 297 320
e 297 321
e 297 322
e 297 323
e 297 324
e 297 325
e 297 326
e 297 327
e 297 328
e 297 329
e 297 330
e 297 331
e 297 332
e 297 333
e 334 335
e 334 336
e 334 337
e 334 338
e 334 339
e 334 340
e 334 341
e 334 342
e 334 343
e 334 344
e 334 345
e 334 346
e 334 347
e 334 348
e 334 349
e 334 350
e 334 351
e 334 352
e 334 353
e 334 354
e 334 355
e 334 356
e 334 357
e 334 358
e 334 359
e 334 360
e 334 361
e 334 362
e 334 363
e 334 364
e 334 365
e 334 366
e 334 367
e 334 368
e 334 369
e 334 370
e 334 371
e 334 372
e 334 373
e 334 374
e 334 375
e 334 376
e 334 377
e 334 378
e 334 379
e 334 380
e 334 381
e 334 382
e 334 383
e 334 384
e 334 385
e 334 386
e 334 387
e 334 388
e 334 389
e 334 390
e 334 391
e 334 392
e 334 393
e 334 394
e 334 395
e 334 396
e 334 397
e 334 398
e 334 399
e 334 400
e 334 401
e 334 402
e 334 403
e 334 404
e 334 405
e 334 406
e 334 407
e 334 408
e 334 409
e 334 410
e 334 411
e 334 412
e 334 413
e 334 414
e 334 415
e 334 416
e 334 417
e 334 418
e 334 419
e 334 420
e 421 422
e 421 423
e 421 424
e 421 425
e 421 426
e 421 427
e 421 428
e 421 429
e 421 430
e 421 431
e 421 432
e 421 433
e 421 434
e 421 435
e 421 436
e 421 437
e 421 438
e 421 439
e 421 440
e 421 441
e 421 442
e 421 443
e 421 444
e 421 445
e 421 446
e 421 447
e 421 448
e 421 449
e 421 450
e 421 451
e 421 452
e 421 453
e 421 454
e 421 455
e 421 456
e 421 457
e 421 458
e 421 459
e 421 460
e 421 461
e 421 462
e 421 463
e 421 464
e 421 465
e 421 466
e 421 467
e 421 468
e 421 469
e 421 470
e 421 471
e 421 472
e 421 473
e 421 474
e 421 475
e 421 476
e 421 477
e 421 478
e 421 479
e 421 480
e 421 481
e 421 482
e 421 483
e 421 484
e 421 485
e 421 486
e 421 487
e 488 489
e 488 490
e 488 491
e 488 492
e 488 493
e 488 494
e 488 495
e 488 496
e 488 497
e 488 498
e 488 499
e 488 500
e 488 501
e 488 502
e 488 503
e 488 504
e 488 505
e 488 506
e 488 507
e 488 508
e 488 509
e 488 510
e 488 511
e 488 512
e 488 513
e 488 514
e 488 515
e 488 516
e 488 517
e 488 518
e 488 519
e 488 520
e 488 521
e 488 522
e 488 523
e 524 525
e 524 526
e 524 527
e 524 528
e 524 529
e 524 530
e 524 531
e 524 532
e 524 533
e 524 534
e 524 535
e 524 536
e 524 537
e 524 538
e 524 539
e 524 540
e 524 541
e 524 542
e 524 543
e 524 544
e 524 545
e 524 546
e 524 547
e 524 548
e 524 549
e 524 550
e 524 551
e 524 552
e 524 553
e 524 554
e 524 555
e 524 556
e 524 557
e 524 558
e 524 559
e 524 560
e 524 561
e 524 562
e 524 563
e 524 564
e 524 565
e 524 566
e 524 567
e 524 568
e 524 569
e 524 570
e 524 571
e 524 572
e 524 573
e 524 574
e 524 575
e 524 576
e 524 577
e 524 578
e 524 579
e 524 580
e 524 581
e 524 582
e 524 583
e 524 584
e 524 585
e 524 586
e 524 587
e 524 588
e 524 589
e 524 590
e 524 591
e 524 592
e 524 593
e 524 594
e 524 595
e 524 596
e 524 597
e 524 598
e 524 599
e 524 600
e 524 601
e 602 603
e 602 604
e 602 605
e 602 606
e 602 607
e 602 608
e 602 609
e 602 610
e 602 611
e 602 612
e 602 613
e 602 614
e 602 615
e 602 616
e 602 617
e 602 618
e 602 619
e 602 620
e 602 621
e 602 622
e 602 623
e 602 624
e 602 625
e 602 626
e 602 627
e 602 628
e 602 629
e 602 630
e 602 631
e 602 632
e 602 633
e 602 634
e 602 635
e 602 636
e 602 637
e 602 638
e 602 639
e 602 640
e 602 641
e 602 642
e 602 643
e 602 644
e 602 645
e 602 646
e 602 647
e 602 648
e 602 649
e 602 650
e 602 651
e 602 652
e 653 654
e 653 655
e 653 656
e 653 657
e 653 658
e 653 659
e 653 660
e 653 661
e 653 662
e 653 663
e 653 664
e 653 665
e 653 666
e 653 667
e 653 668
e 653 669
e 653 670
e 653 671
e 653 672
e 653 673
e 653 674
e 653 675
e 653 676
e 653 677
e 653 678
e 653 679
e 653 680
e 653 681
e 653 682
e 653 683
e 653 684
e 653 685
e 653 686
e 653 687
e 653 688
e 653 689
e 653 690
e 653 691
e 653 692
e 653 693
e 653 694
e 653 695
e 653 696
e 653 697
e 653 698
e 653 699
e 653 700
e 653 701
e 653 702
e 653 703
e 653 704
e 653 705
e 653 706
e 653 707
e 653 708
e 653 709
e 653 710
e 653 711
e 653 712
e 653 713
e 653 714
e 653 715
e 653 716
e 653 717
e 653 718
e 653 719
e 653 720
e 653 721
e 653 722
e 653 723
e 724 725
e 724 726
e 724 727
e 724 728
e 724 729
e 724 730
e 724 731
e 724 732
e 724 733
e 724 734
e 724 735
e 724 736
e 724 737
e 724 738
e 724 739
e 724 740
e 724 741
e 724 742
e 724 743
e 724 744
e 724 745
e 724 746
e 724 747
e 724 748
e 724 749
e 724 750
e 724 751
e 752 753
e 752 754
e 752 755
e 752 756
e 752 757
e 752 758
e 752 759
e 752 760
e 752 761
e 752 762
e 752 763
e 752 764
e 752 765
e 752 766
e 752 767
e 752 768
e 752 769
e 752 770
e 752 771
e 752 772
e 752 773
e 752 774
e 752 775
e 752 776
e 752 777
e 752 778
e 752 779
e 752 780
e 752 781
e 752 782
e 752 783
e 752 784
e 752 785
e 752 786
e 752 787
e 752 788
e 752 789
e 752 790
e 752 791
e 752 792
e 752 793
e 752 794
e 752 795
e 752 796
e 752 797
e 752 798
e 752 799
e 752 800
e 752 801
e 752 802
e 752 803
e 752 804
e 752 805
e 752 806
e 752 807
e 752 808
e 752 809
e 752 810
e 752 811
e 752 812
e 752 813
e 752 814
e 752 815
e 752 816
e 752 817
e 752 818
e 819 820
e 819 821
e 819 822
e 819 823
e 819 824
e 819 825
e 819 826
e 819 827
e 819 828
e 819 829
e 819 830
e 819 831
e 819 832
e 819 833
e 819 834
e 819 835
e 819 836
e 819 837
e 838 839
e 838 840
e 838 841
e 838 842
e 838 843
e 838 844
e 838 845
e 838 846
e 838 847
e 838 848
e 838 849
e 838 850
e 838 851
e 838 852
e 838 853
e 838 854
e 838 855
e 838 856
e 838 857
e 838 858
e 838 859
e 838 860
e 838 861
e 838 862
e 838 863
e 838 864
e 838 865
e 838 866
e 838 867
e 838 868
e 838 869
e 838 870
e 838 871
e 838 872
e 838 873
e 838 874
e 838 875
e 838 876
e 838 877
e 838 878
e 838 879
e 838 880
e 838 881
e 838 882
e 838 883
e 838 884
e 838 885
e 838 886
e 838 887
e 838 888
e 838 889
e 838 890
e 838 891
e 838 892
e 838 893
e 838 894
e 838 895
e 896 897
e 896 898
e 896 899
e 896 900
e 896 901
e 896 902
e 896 903
e 896 904
e 896 905
e 896 906
e 896 907
e 896 908
e 896 909
e 896 910
e 896 911
e 896 912
e 896 913
e 896 914
e 896 915
e 896 916
e 896 917
e 896 918
e 896 919
e 896 920
e 896 921
e 896 922
e 896 923
e 896 924
e 896 925
e 896 926
e 896 927
e 896 928
e 896 929
e 896 930
e 896 931
e 896 932
e 896 933
e 896 934
e 896 935
e 896 936
e 896 937
e 896 938
e 896 939
e 896 940
e 896 941
e 896 942
e 896 943
e 896 944
e 896 945
e 896 946
e 896 947
e 896 948
e 896 949
e 896 950
e 896 951
e 896 952
e 896 953
e 896 954
e 896 955
e 896 956
e 896 957
e 896 958
e 896 959
e 960 961
e 960 962
e 960 963
e 960 964
e 960 965
e 960 966
e 960 967
e 960 968
e 960 969
e 960 970
e 960 971
e 960 972
e 960 973
e 960 974
e 960 975
e 960 976
e 960 977
e 960 978
e 960 979
e 960 980
e 960 981
e 960 982
e 960 983
e 960 984
e 960 985
e 960 986
e 960 987
e 960 988
e 960 989
e 960 990
e 960 991
e 960 992
e 960 993
e 960 994
e 960 995
e 960 996
e 960 997
e 960 998
e 960 999
e 960 1000
e 960 1001
e 960 1002
e 960 1003
e 960 1004
e 960 1005
e 960 1006
e 960 1007
e 960 1008
e 960 1009
e 960 1010
e 960 1011
e 960 1012
e 960 1013
e 960 1014
e 960 1015
e 960 1016
e 960 1017
e 960 1018
e 960 1019
e 1020 1021
e 1020 1022
e 1020 1023
e 1020 1024
e 1020 1025
e 1020 1026
e 1020 1027
e 1020 1028
e 1020 1029
e 1020 1030
e 1020 1031
e 1020 1032
e 1020 1033
e 1020 1034
e 1020 1035
e 1020 1036
e 1020 1037
e 1020 1038
e 1020 1039
e 1020 1040
e 1020 1041
e 1020 1042
e 1020 1043
e 1020 1044
e 1020 1045
e 1020 1046
e 1020 1047
e 1020 1048
e 1020 1049
e 1020 1050
e 1020 1051
e 1020 1052
e 1020 1053
e 1020 1054
e 1020 1055
e 1020 1056
e 1020 1057
e 1020 1058
e 1020 1059
e 1020 1060
e 1020 1061
e 1020 1062
e 1020 1063
e 1020 1064
e 1020 1065
e 1020 1066
e 1020 1067
e 1020 1068
e 1020 1069
e 1020 1070
e 1020 1071
e 1020 1072
e 1020 1073
e 1020 1074
e 1020 1075
e 1020 1076
e 1020 1077
e 1020 1078
e 1020 1079
e 1020 1080
e 1020 1081
e 1020 1082
e 1020 1083
e 1020 1084
e 1085 1086
e 1085 1087
e 1085 1088
e 1085 1089
e 1085 1090
e 1085 1091
e 1085 1092
e 1085 1093
e 1085 1094
e 1085 1095
e 1096 1097
e 1096 1098
e 1096 1099
e 1096 1100
e 1096 1101
e 1096 1102
e 1096 1103
e 1096 1104
e 1096 1105
e 1096 1106
e 1096 1107
e 1096 1108
e 1096 1109
e 1096 1110
e 1096 1111
e 1096 1112
e 1096 1113
e 1096 1114
e 1096 1115
e 1116 1117
e 1116 1118
e 1116 1119
e 1116 1120
e 1116 1121
e 1116 1122
e 1116 1123
e 1116 1124
e 1116 1125
e 1116 1126
e 1116 1127
e 1116 1128
e 1116 1129
e 1116 1130
e 1116 1131
e 1116 1132
e 1116 1133
e 1116 1134
e 1116 1135
e 1116 1136
e 1116 1137
e 1116 1138
e 1116 1139
e 1116 1140
e 1116 1141
e 1116 1142
e 1116 1143
e 1116 1144
e 1116 1145
e 1116 1146
e 1116 1147
e 1116 1148
e 1116 1149
e 1116 1150
e 1116 1151
e 1116 1152
e 1116 1153
e 1116 1154
e 1116 1155
e 1116 1156
e 1116 1157
e 1116 1158
e 1116 1159
e 1116 1160
e 1116 1161
e 1116 1162
e 1116 1163
e 1116 1164
e 1116 1165
e 1116 1166
e 1116 1167
e 1116 1168
e 1116 1169
e 1116 1170
e 1116 1171
e 1116 1172
e 1116 1173
e 1116 1174
e 1116 1175
e 1116 1176
e 1116 1177
e 1116 1178
e 1116 1179
e 1116 1180
e 1116 1181
e 1116 1182
e 1116 1183
e 1184 1185
e 1184 1186
e 1184 1187
e 1184 1188
e 1184 1189
e 1184 1190
e 1184 1191
e 1184 1192
e 1184 1193
e 1184 1194
e 1195 1196
e 1195 1197
e 1195 1198
e 1195 1199
e 1195 1200
e 1195 1201
e 1195 1202
e 1195 1203
e 1195 1204
e 1195 1205
e 1195 1206
e 1195 1207
e 1195 1208
e 1195 1209
e 1195 1210
e 1195 1211
e 1195 1212
e 1195 1213
e 1195 1214
e 1195 1215
e 1195 1216
e 1195 1217
e 1195 1218
e 1195 1219
e 1195 1220
e 1195 1221
e 1195 1222
e 1195 1223
e 1195 1224
e 1195 1225
e 1195 1226
e 1195 1227
e 1195 1228
e 1195 1229
e 1195 1230
e 1195 1231
e 1195 1232
e 1195 1233
e 1195 1234
e 1195 1235
e 1195 1236
e 1195 1237
e 1195 1238
e 1195 1239
e 1195 1240
e 1195 1241
e 1195 1242
e 1195 1243
e 1195 1244
e 1195 1245
e 1195 1246
e 1195 1247
e 1195 1248
e 1195 1249
e 1195 1250
e 1251 1252
e 1251 1253
e 1251 1254
e 1251 1255
e 1251 1256
e 1251 1257
e 1251 1258
e 1251 1259
e 1251 1260
e 1251 1261
e 1251 1262
e 1251 1263
e 1251 1264
e 1251 1265
e 1251 1266
e 1251 1267
e 1251 1268
e 1251 1269
e 1251 1270
e 1251 1271
e 1251 1272
e 1251 1273
e 1251 1274
e 1251 1275
e 1251 1276
e 1251 1277
e 1251 1278
e 1251 1279
e 1251 1280
e 1251 1281
e 1251 1282
e 1251 1283
e 1251 1284
e 1251 1285
e 1251 1286
e 1251 1287
e 1251 1288
e 1251 1289
e 1251 1290
e 1251 1291
e 1251 1292
e 1251 1293
e 1251 1294
e 1251 1295
e 1251 1296
e 1251 1297
e 1251 1298
e 1251 1299
e 1251 1300
e 1251 1301
e 1251 1302
e 1251 1303
e 1251 1304
e 1251 1305
e 1251 1306
e 1251 1307
e 1251 1308
e 1251 1309
e 1251 1310
e 1251 1311
e 1251 1312
e 1251 1313
e 1251 1314
e 1251 1315
e 1251 1316
e 1251 1317
e 1318 1319
e 1318 1320
e 1318 1321
e 1318 1322
e 1318 1323
e 1318 1324
e 1318 1325
e 1318 1326
e 1318 1327
e 1318 1328
e 1318 1329
e 1318 1330
e 1318 1331
e 1318 1332
e 1318 1333
e 1318 1334
e 1318 1335
e 1318 1336
e 1318 1337
e 1318 1338
e 1318 1339
e 1318 1340
e 1318 1341
e 1318 1342
e 1318 1343
e 1318 1344
e 1318 1345
e 1318 1346
e 1318 1347
e 1318 1348
e 1318 1349
e 1318 1350
e 1318 1351
e 1318 1352
e 1318 1353
e 1318 1354
e 1318 1355
e 1318 1356
e 1318 1357
e 1318 1358
e 1318 1359
e 1318 1360
e 1318 1361
e 1318 1362
e 1318 1363
e 1318 1364
e 1318 1365
e 1318 1366
e 1318 1367
e 1318 1368
e 1318 1369
e 1318 1370
e 1318 1371
e 1318 1372
e 1318 1373
e 1318 1374
e 1318 1375
e 1318 1376
e 1318 1377
e 1318 1378
e 1318 1379
e 1318 1380
e 1318 1381
e 1318 1382
e 1318 1383
e 1318 1384
e 1318 1385
e 1318 1386
e 1318 1387
e 1318 1388
e 1318 1389
e 1318 1390
e 1318 1391
e 1318 1392
e 1393 1394
e 1393 1395
e 1393 1396
e 1393 1397
e 1393 1398
e 1393 1399
e 1393 1400
e 1393 1401
e 1393 1402
e 1393 1403
e 1393 1404
e 1393 1405
e 1393 1406
e 1393 1407
e 1393 1408
e 1393 1409
e 1393 1410
e 1393 1411
e 1393 1412
e 1393 1413
e 1393 1414
e 1393 1415
e 1393 1416
e 1393 1417
e 1393 1418
e 1393 1419
e 1393 1420
e 1393 1421
e 1393 1422
e 1393 1423
e 1393 1424
e 1393 1425
e 1393 1426
e 1393 1427
e 1393 1428
e 1393 1429
e 1393 1430
e 1393 1431
e 1393 1432
e 1393 1433
e 1393 1434
e 1393 1435
e 1393 1436
e 1393 1437
e 1393 1438
e 1393 1439
e 1393 1440
e 1393 1441
e 1393 1442
e 1393 1443
e 1393 1444
e 1393 1445
e 1393 1446
e 1393 1447
e 1393 1448
e 1393 1449
e 1393 1450
e 1393 1451
e 1393 1452
e 1393 1453
e 1393 1454
e 1393 1455
e 1393 1456
e 1393 1457
e 1393 1458
e 1393 1459
e 1393 1460
e 1393 1461
e 1393 1462
e 1393 1463
e 1393 1464
e 1393 1465
e 1393 1466
e 1393 1467
e 1393 1468
e 1393 1469
e 1393 1470
e 1471 1472
e 1471 1473
e 1471 1474
e 1471 1475
e 1471 1476
e 1471 1477
e 1471 1478
e 1471 1479
e 1471 1480
e 1471 1481
e 1471 1482
e 1471 1483
e 1471 1484
e 1485 1486
e 1485 1487
e 1485 1488
e 1485 1489
e 1485 1490
e 1485 1491
e 1485 1492
e 1485 1493
e 1485 1494
e 1485 1495
e 1485 1496
e 1485 1497
e 1485 1498
e 1485 1499
e 1485 1500
e 1485 1501
e 1485 1502
e 1485 1503
e 1485 1504
e 1485 1505
e 1485 1506
e 1485 1507
e 1485 1508
e 1485 1509
e 1485 1510
e 1485 1511
e 1485 1512
e 1485 1513
e 1485 1514
e 1485 1515
e 1485 1516
e 1485 1517
e 1485 1518
e 1485 1519
e 1485 1520
